(set-logic QF_S)
(declare-fun var0 () String)
(declare-fun var1 () String)
(declare-fun var2 () String)
(declare-fun var3 () Int)
(declare-fun var4 () Int)
(declare-fun var5 () Int)
(declare-fun var6 () Bool)
(declare-fun var7 () Bool)
(declare-fun var8 () Bool)
(assert (> (str.len var0) (str.indexof var0 var0 var3)))
(assert (<= (str.len (str.substr "4R(""E01zv~" var5 var4)) (str.len var1)))
(assert (< (str.indexof (str.substr var0 var4 var5) (str.replace var2 var2 var1) (str.indexof var2 var0 var3)) (str.len var1)))
(assert (str.in.re (str.substr "uid}9Um8pg" var4 var4) (re.* re.allchar)))
(check-sat)